PARAMETER_FILE = even/even_uncomplete_graph_new/seg/par/random172.par
PROBLEM_FILE = even/even_uncomplete_graph_new/seg/mat/random172.tsp
Successes/Runs = 0/10
Cost.min = 967, Cost.avg = 967.00, Cost.max = 967
Gap.min = 0.0000%, Gap.avg = 0.0000%, Gap.max = 0.0000%
Trials.min = 1000, Trials.avg = 1000.0, Trials.max = 1000
Time.min = 1.06 sec., Time.avg = 1.14 sec., Time.max = 1.23 sec.
Time.total = 11.54 sec.
